p cnf 386 460
-7 14 4 21 22 0
-7 14 4 21 -22 0
-7 14 4 -21 23 0
-7 14 4 -21 -23 0
10 7 -15 24 25 0
10 7 -15 24 -25 0
10 7 -15 -24 26 0
10 7 -15 -24 -26 0
4 12 -7 27 28 0
4 12 -7 27 -28 0
4 12 -7 -27 29 0
4 12 -7 -27 -29 0
5 -19 9 30 31 0
5 -19 9 30 -31 0
5 -19 9 -30 32 0
5 -19 9 -30 -32 0
-2 -14 -5 33 34 0
-2 -14 -5 33 -34 0
-2 -14 -5 -33 35 0
-2 -14 -5 -33 -35 0
12 -5 -15 36 37 0
12 -5 -15 36 -37 0
12 -5 -15 -36 38 0
12 -5 -15 -36 -38 0
12 19 20 39 40 0
12 19 20 39 -40 0
12 19 20 -39 41 0
12 19 20 -39 -41 0
-17 16 -13 42 43 0
-17 16 -13 42 -43 0
-17 16 -13 -42 44 0
-17 16 -13 -42 -44 0
15 16 6 45 46 0
15 16 6 45 -46 0
15 16 6 -45 47 0
15 16 6 -45 -47 0
2 10 -4 48 49 0
2 10 -4 48 -49 0
2 10 -4 -48 50 0
2 10 -4 -48 -50 0
-5 10 -7 51 52 0
-5 10 -7 51 -52 0
-5 10 -7 -51 53 0
-5 10 -7 -51 -53 0
-15 19 18 54 55 0
-15 19 18 54 -55 0
-15 19 18 -54 56 0
-15 19 18 -54 -56 0
-16 3 -14 57 58 0
-16 3 -14 57 -58 0
-16 3 -14 -57 59 0
-16 3 -14 -57 -59 0
-7 5 17 60 61 0
-7 5 17 60 -61 0
-7 5 17 -60 62 0
-7 5 17 -60 -62 0
-16 -19 7 63 64 0
-16 -19 7 63 -64 0
-16 -19 7 -63 65 0
-16 -19 7 -63 -65 0
1 -3 -11 66 67 0
1 -3 -11 66 -67 0
1 -3 -11 -66 68 0
1 -3 -11 -66 -68 0
6 -14 16 69 70 0
6 -14 16 69 -70 0
6 -14 16 -69 71 0
6 -14 16 -69 -71 0
-5 -8 19 72 73 0
-5 -8 19 72 -73 0
-5 -8 19 -72 74 0
-5 -8 19 -72 -74 0
7 18 6 75 76 0
7 18 6 75 -76 0
7 18 6 -75 77 0
7 18 6 -75 -77 0
-18 5 -15 78 79 0
-18 5 -15 78 -79 0
-18 5 -15 -78 80 0
-18 5 -15 -78 -80 0
14 6 2 81 82 0
14 6 2 81 -82 0
14 6 2 -81 83 0
14 6 2 -81 -83 0
-18 -10 20 84 85 0
-18 -10 20 84 -85 0
-18 -10 20 -84 86 0
-18 -10 20 -84 -86 0
13 -18 2 87 88 0
13 -18 2 87 -88 0
13 -18 2 -87 89 0
13 -18 2 -87 -89 0
6 2 16 90 91 0
6 2 16 90 -91 0
6 2 16 -90 92 0
6 2 16 -90 -92 0
16 -10 -5 93 94 0
16 -10 -5 93 -94 0
16 -10 -5 -93 95 0
16 -10 -5 -93 -95 0
-11 -19 -13 96 97 0
-11 -19 -13 96 -97 0
-11 -19 -13 -96 98 0
-11 -19 -13 -96 -98 0
7 -11 -1 99 100 0
7 -11 -1 99 -100 0
7 -11 -1 -99 101 0
7 -11 -1 -99 -101 0
2 13 16 102 103 0
2 13 16 102 -103 0
2 13 16 -102 104 0
2 13 16 -102 -104 0
-11 -10 18 105 106 0
-11 -10 18 105 -106 0
-11 -10 18 -105 107 0
-11 -10 18 -105 -107 0
-8 -5 12 108 109 0
-8 -5 12 108 -109 0
-8 -5 12 -108 110 0
-8 -5 12 -108 -110 0
7 -19 16 111 112 0
7 -19 16 111 -112 0
7 -19 16 -111 113 0
7 -19 16 -111 -113 0
-10 1 -17 114 115 0
-10 1 -17 114 -115 0
-10 1 -17 -114 116 0
-10 1 -17 -114 -116 0
-5 -6 20 117 118 0
-5 -6 20 117 -118 0
-5 -6 20 -117 119 0
-5 -6 20 -117 -119 0
-2 19 14 120 121 0
-2 19 14 120 -121 0
-2 19 14 -120 122 0
-2 19 14 -120 -122 0
3 -18 19 123 124 0
3 -18 19 123 -124 0
3 -18 19 -123 125 0
3 -18 19 -123 -125 0
-1 15 -9 126 127 0
-1 15 -9 126 -127 0
-1 15 -9 -126 128 0
-1 15 -9 -126 -128 0
-16 17 -9 129 130 0
-16 17 -9 129 -130 0
-16 17 -9 -129 131 0
-16 17 -9 -129 -131 0
5 -12 -16 132 133 0
5 -12 -16 132 -133 0
5 -12 -16 -132 134 0
5 -12 -16 -132 -134 0
6 -12 -11 135 136 0
6 -12 -11 135 -136 0
6 -12 -11 -135 137 0
6 -12 -11 -135 -137 0
6 -14 -10 138 139 0
6 -14 -10 138 -139 0
6 -14 -10 -138 140 0
6 -14 -10 -138 -140 0
9 8 3 141 142 0
9 8 3 141 -142 0
9 8 3 -141 143 0
9 8 3 -141 -143 0
-18 -5 10 144 145 0
-18 -5 10 144 -145 0
-18 -5 10 -144 146 0
-18 -5 10 -144 -146 0
-2 4 15 147 148 0
-2 4 15 147 -148 0
-2 4 15 -147 149 0
-2 4 15 -147 -149 0
-14 -19 -4 150 151 0
-14 -19 -4 150 -151 0
-14 -19 -4 -150 152 0
-14 -19 -4 -150 -152 0
-3 9 -5 153 154 0
-3 9 -5 153 -154 0
-3 9 -5 -153 155 0
-3 9 -5 -153 -155 0
19 -10 2 156 157 0
19 -10 2 156 -157 0
19 -10 2 -156 158 0
19 -10 2 -156 -158 0
-20 -2 -12 159 160 0
-20 -2 -12 159 -160 0
-20 -2 -12 -159 161 0
-20 -2 -12 -159 -161 0
18 -8 16 162 163 0
18 -8 16 162 -163 0
18 -8 16 -162 164 0
18 -8 16 -162 -164 0
-19 14 13 165 166 0
-19 14 13 165 -166 0
-19 14 13 -165 167 0
-19 14 13 -165 -167 0
-18 -12 9 168 169 0
-18 -12 9 168 -169 0
-18 -12 9 -168 170 0
-18 -12 9 -168 -170 0
10 -13 9 171 172 0
10 -13 9 171 -172 0
10 -13 9 -171 173 0
10 -13 9 -171 -173 0
8 -7 4 174 175 0
8 -7 4 174 -175 0
8 -7 4 -174 176 0
8 -7 4 -174 -176 0
18 8 17 177 178 0
18 8 17 177 -178 0
18 8 17 -177 179 0
18 8 17 -177 -179 0
-1 16 18 180 181 0
-1 16 18 180 -181 0
-1 16 18 -180 182 0
-1 16 18 -180 -182 0
14 3 17 183 184 0
14 3 17 183 -184 0
14 3 17 -183 185 0
14 3 17 -183 -185 0
-9 -12 -20 186 187 0
-9 -12 -20 186 -187 0
-9 -12 -20 -186 188 0
-9 -12 -20 -186 -188 0
5 6 1 189 190 0
5 6 1 189 -190 0
5 6 1 -189 191 0
5 6 1 -189 -191 0
10 4 8 192 193 0
10 4 8 192 -193 0
10 4 8 -192 194 0
10 4 8 -192 -194 0
12 7 -6 195 196 0
12 7 -6 195 -196 0
12 7 -6 -195 197 0
12 7 -6 -195 -197 0
13 -16 -14 198 199 0
13 -16 -14 198 -199 0
13 -16 -14 -198 200 0
13 -16 -14 -198 -200 0
-17 6 7 201 202 0
-17 6 7 201 -202 0
-17 6 7 -201 203 0
-17 6 7 -201 -203 0
-11 -7 -10 204 205 0
-11 -7 -10 204 -205 0
-11 -7 -10 -204 206 0
-11 -7 -10 -204 -206 0
-12 -5 19 207 208 0
-12 -5 19 207 -208 0
-12 -5 19 -207 209 0
-12 -5 19 -207 -209 0
-9 2 -10 210 211 0
-9 2 -10 210 -211 0
-9 2 -10 -210 212 0
-9 2 -10 -210 -212 0
-5 -3 7 213 214 0
-5 -3 7 213 -214 0
-5 -3 7 -213 215 0
-5 -3 7 -213 -215 0
14 8 -10 216 217 0
14 8 -10 216 -217 0
14 8 -10 -216 218 0
14 8 -10 -216 -218 0
-5 15 -19 219 220 0
-5 15 -19 219 -220 0
-5 15 -19 -219 221 0
-5 15 -19 -219 -221 0
-11 18 -9 222 223 0
-11 18 -9 222 -223 0
-11 18 -9 -222 224 0
-11 18 -9 -222 -224 0
-5 -10 -3 225 226 0
-5 -10 -3 225 -226 0
-5 -10 -3 -225 227 0
-5 -10 -3 -225 -227 0
-5 2 -3 228 229 0
-5 2 -3 228 -229 0
-5 2 -3 -228 230 0
-5 2 -3 -228 -230 0
1 14 16 231 232 0
1 14 16 231 -232 0
1 14 16 -231 233 0
1 14 16 -231 -233 0
20 -5 16 234 235 0
20 -5 16 234 -235 0
20 -5 16 -234 236 0
20 -5 16 -234 -236 0
-4 16 15 237 238 0
-4 16 15 237 -238 0
-4 16 15 -237 239 0
-4 16 15 -237 -239 0
4 -13 10 240 241 0
4 -13 10 240 -241 0
4 -13 10 -240 242 0
4 -13 10 -240 -242 0
7 14 5 243 244 0
7 14 5 243 -244 0
7 14 5 -243 245 0
7 14 5 -243 -245 0
-5 -7 4 246 247 0
-5 -7 4 246 -247 0
-5 -7 4 -246 248 0
-5 -7 4 -246 -248 0
-1 -12 -13 249 250 0
-1 -12 -13 249 -250 0
-1 -12 -13 -249 251 0
-1 -12 -13 -249 -251 0
-2 -1 6 252 253 0
-2 -1 6 252 -253 0
-2 -1 6 -252 254 0
-2 -1 6 -252 -254 0
2 -4 -12 255 256 0
2 -4 -12 255 -256 0
2 -4 -12 -255 257 0
2 -4 -12 -255 -257 0
13 -7 20 258 259 0
13 -7 20 258 -259 0
13 -7 20 -258 260 0
13 -7 20 -258 -260 0
6 -20 13 261 262 0
6 -20 13 261 -262 0
6 -20 13 -261 263 0
6 -20 13 -261 -263 0
7 -3 15 264 265 0
7 -3 15 264 -265 0
7 -3 15 -264 266 0
7 -3 15 -264 -266 0
-3 -1 -10 267 268 0
-3 -1 -10 267 -268 0
-3 -1 -10 -267 269 0
-3 -1 -10 -267 -269 0
20 -3 12 270 271 0
20 -3 12 270 -271 0
20 -3 12 -270 272 0
20 -3 12 -270 -272 0
2 -19 -6 273 274 0
2 -19 -6 273 -274 0
2 -19 -6 -273 275 0
2 -19 -6 -273 -275 0
-9 10 7 276 277 0
-9 10 7 276 -277 0
-9 10 7 -276 278 0
-9 10 7 -276 -278 0
1 3 2 279 280 0
1 3 2 279 -280 0
1 3 2 -279 281 0
1 3 2 -279 -281 0
6 3 -16 282 283 0
6 3 -16 282 -283 0
6 3 -16 -282 284 0
6 3 -16 -282 -284 0
-4 -6 13 285 286 0
-4 -6 13 285 -286 0
-4 -6 13 -285 287 0
-4 -6 13 -285 -287 0
20 -16 -3 288 289 0
20 -16 -3 288 -289 0
20 -16 -3 -288 290 0
20 -16 -3 -288 -290 0
20 7 3 291 292 0
20 7 3 291 -292 0
20 7 3 -291 293 0
20 7 3 -291 -293 0
294 295 297 301 309 0
294 295 297 301 -309 0
294 295 297 -301 310 0
294 295 297 -301 -310 0
294 295 -297 302 311 0
294 295 -297 302 -311 0
294 295 -297 -302 312 0
294 295 -297 -302 -312 0
294 -295 298 303 313 0
294 -295 298 303 -313 0
294 -295 298 -303 314 0
294 -295 298 -303 -314 0
294 -295 -298 304 315 0
294 -295 -298 304 -315 0
294 -295 -298 -304 316 0
294 -295 -298 -304 -316 0
-294 296 299 305 317 0
-294 296 299 305 -317 0
-294 296 299 -305 318 0
-294 296 299 -305 -318 0
-294 296 -299 306 319 0
-294 296 -299 306 -319 0
-294 296 -299 -306 320 0
-294 296 -299 -306 -320 0
-294 -296 300 307 321 0
-294 -296 300 307 -321 0
-294 -296 300 -307 322 0
-294 -296 300 -307 -322 0
-294 -296 -300 308 323 0
-294 -296 -300 308 -323 0
-294 -296 -300 -308 324 0
-294 -296 -300 -308 -324 0
325 326 328 332 340 0
325 326 328 332 -340 0
325 326 328 -332 341 0
325 326 328 -332 -341 0
325 326 -328 333 342 0
325 326 -328 333 -342 0
325 326 -328 -333 343 0
325 326 -328 -333 -343 0
325 -326 329 334 344 0
325 -326 329 334 -344 0
325 -326 329 -334 345 0
325 -326 329 -334 -345 0
325 -326 -329 335 346 0
325 -326 -329 335 -346 0
325 -326 -329 -335 347 0
325 -326 -329 -335 -347 0
-325 327 330 336 348 0
-325 327 330 336 -348 0
-325 327 330 -336 349 0
-325 327 330 -336 -349 0
-325 327 -330 337 350 0
-325 327 -330 337 -350 0
-325 327 -330 -337 351 0
-325 327 -330 -337 -351 0
-325 -327 331 338 352 0
-325 -327 331 338 -352 0
-325 -327 331 -338 353 0
-325 -327 331 -338 -353 0
-325 -327 -331 339 354 0
-325 -327 -331 339 -354 0
-325 -327 -331 -339 355 0
-325 -327 -331 -339 -355 0
356 357 359 363 371 0
356 357 359 363 -371 0
356 357 359 -363 372 0
356 357 359 -363 -372 0
356 357 -359 364 373 0
356 357 -359 364 -373 0
356 357 -359 -364 374 0
356 357 -359 -364 -374 0
356 -357 360 365 375 0
356 -357 360 365 -375 0
356 -357 360 -365 376 0
356 -357 360 -365 -376 0
356 -357 -360 366 377 0
356 -357 -360 366 -377 0
356 -357 -360 -366 378 0
356 -357 -360 -366 -378 0
-356 358 361 367 379 0
-356 358 361 367 -379 0
-356 358 361 -367 380 0
-356 358 361 -367 -380 0
-356 358 -361 368 381 0
-356 358 -361 368 -381 0
-356 358 -361 -368 382 0
-356 358 -361 -368 -382 0
-356 -358 362 369 383 0
-356 -358 362 369 -383 0
-356 -358 362 -369 384 0
-356 -358 362 -369 -384 0
-356 -358 -362 370 385 0
-356 -358 -362 370 -385 0
-356 -358 -362 -370 386 0
-356 -358 -362 -370 -386 0

